p edge 100 2486
e 1 3
e 1 5
e 1 6
e 1 11
e 1 12
e 1 15
e 1 16
e 1 17
e 1 19
e 1 20
e 1 21
e 1 23
e 1 24
e 1 26
e 1 27
e 1 28
e 1 30
e 1 31
e 1 33
e 1 34
e 1 35
e 1 38
e 1 39
e 1 40
e 1 41
e 1 43
e 1 45
e 1 47
e 1 48
e 1 49
e 1 50
e 1 51
e 1 54
e 1 55
e 1 56
e 1 57
e 1 59
e 1 60
e 1 61
e 1 62
e 1 64
e 1 66
e 1 67
e 1 69
e 1 70
e 1 75
e 1 79
e 1 81
e 1 84
e 1 91
e 1 96
e 1 97
e 1 99
e 1 100
e 2 5
e 2 7
e 2 12
e 2 13
e 2 18
e 2 19
e 2 20
e 2 21
e 2 26
e 2 29
e 2 31
e 2 32
e 2 33
e 2 34
e 2 35
e 2 37
e 2 39
e 2 40
e 2 43
e 2 47
e 2 48
e 2 50
e 2 51
e 2 52
e 2 54
e 2 56
e 2 57
e 2 59
e 2 60
e 2 62
e 2 63
e 2 64
e 2 65
e 2 66
e 2 68
e 2 70
e 2 71
e 2 72
e 2 74
e 2 78
e 2 82
e 2 87
e 2 88
e 2 92
e 2 95
e 2 96
e 2 97
e 2 99
e 2 100
e 3 5
e 3 7
e 3 8
e 3 9
e 3 10
e 3 11
e 3 15
e 3 19
e 3 20
e 3 21
e 3 24
e 3 25
e 3 27
e 3 28
e 3 29
e 3 30
e 3 32
e 3 34
e 3 35
e 3 36
e 3 38
e 3 40
e 3 41
e 3 42
e 3 44
e 3 49
e 3 50
e 3 51
e 3 52
e 3 54
e 3 55
e 3 56
e 3 57
e 3 58
e 3 60
e 3 67
e 3 68
e 3 69
e 3 73
e 3 74
e 3 76
e 3 77
e 3 78
e 3 79
e 3 80
e 3 81
e 3 82
e 3 84
e 3 85
e 3 86
e 3 89
e 3 90
e 3 93
e 3 97
e 3 99
e 4 7
e 4 8
e 4 11
e 4 15
e 4 17
e 4 21
e 4 22
e 4 24
e 4 28
e 4 30
e 4 32
e 4 36
e 4 37
e 4 40
e 4 41
e 4 45
e 4 47
e 4 48
e 4 49
e 4 51
e 4 52
e 4 54
e 4 55
e 4 61
e 4 64
e 4 65
e 4 67
e 4 68
e 4 69
e 4 72
e 4 74
e 4 75
e 4 77
e 4 78
e 4 79
e 4 81
e 4 83
e 4 86
e 4 87
e 4 90
e 4 93
e 4 94
e 4 95
e 4 96
e 4 99
e 4 100
e 5 6
e 5 8
e 5 9
e 5 12
e 5 13
e 5 16
e 5 19
e 5 23
e 5 26
e 5 29
e 5 30
e 5 31
e 5 32
e 5 36
e 5 37
e 5 39
e 5 41
e 5 43
e 5 45
e 5 47
e 5 48
e 5 51
e 5 52
e 5 53
e 5 54
e 5 55
e 5 57
e 5 58
e 5 60
e 5 61
e 5 62
e 5 63
e 5 65
e 5 66
e 5 67
e 5 68
e 5 69
e 5 74
e 5 75
e 5 76
e 5 78
e 5 83
e 5 84
e 5 86
e 5 88
e 5 90
e 5 92
e 5 95
e 5 97
e 5 98
e 6 7
e 6 12
e 6 13
e 6 17
e 6 18
e 6 20
e 6 21
e 6 22
e 6 26
e 6 28
e 6 30
e 6 31
e 6 33
e 6 34
e 6 36
e 6 37
e 6 38
e 6 39
e 6 40
e 6 41
e 6 46
e 6 47
e 6 48
e 6 49
e 6 50
e 6 57
e 6 58
e 6 60
e 6 65
e 6 67
e 6 68
e 6 70
e 6 71
e 6 72
e 6 75
e 6 76
e 6 78
e 6 80
e 6 89
e 6 90
e 6 91
e 6 92
e 6 95
e 6 96
e 6 97
e 6 98
e 6 100
e 7 9
e 7 10
e 7 14
e 7 15
e 7 16
e 7 19
e 7 20
e 7 22
e 7 23
e 7 25
e 7 28
e 7 29
e 7 31
e 7 32
e 7 34
e 7 35
e 7 36
e 7 37
e 7 38
e 7 39
e 7 41
e 7 42
e 7 43
e 7 44
e 7 45
e 7 47
e 7 48
e 7 50
e 7 52
e 7 53
e 7 55
e 7 56
e 7 57
e 7 58
e 7 60
e 7 62
e 7 65
e 7 69
e 7 70
e 7 71
e 7 72
e 7 73
e 7 76
e 7 77
e 7 80
e 7 81
e 7 82
e 7 84
e 7 89
e 7 95
e 7 96
e 7 97
e 7 99
e 8 10
e 8 16
e 8 17
e 8 19
e 8 20
e 8 26
e 8 28
e 8 29
e 8 31
e 8 32
e 8 33
e 8 34
e 8 37
e 8 39
e 8 40
e 8 41
e 8 44
e 8 46
e 8 49
e 8 51
e 8 53
e 8 56
e 8 57
e 8 59
e 8 60
e 8 61
e 8 63
e 8 65
e 8 67
e 8 68
e 8 69
e 8 70
e 8 71
e 8 74
e 8 76
e 8 80
e 8 81
e 8 83
e 8 84
e 8 85
e 8 88
e 8 89
e 8 90
e 8 91
e 8 95
e 8 98
e 9 10
e 9 11
e 9 13
e 9 14
e 9 15
e 9 16
e 9 17
e 9 20
e 9 22
e 9 26
e 9 27
e 9 28
e 9 29
e 9 34
e 9 35
e 9 38
e 9 39
e 9 40
e 9 42
e 9 44
e 9 51
e 9 52
e 9 54
e 9 55
e 9 57
e 9 58
e 9 59
e 9 60
e 9 62
e 9 63
e 9 64
e 9 66
e 9 67
e 9 69
e 9 71
e 9 74
e 9 76
e 9 78
e 9 79
e 9 83
e 9 84
e 9 88
e 9 89
e 9 90
e 9 91
e 9 93
e 9 94
e 9 95
e 9 96
e 9 99
e 10 11
e 10 14
e 10 16
e 10 17
e 10 20
e 10 21
e 10 23
e 10 25
e 10 26
e 10 29
e 10 31
e 10 33
e 10 35
e 10 36
e 10 37
e 10 38
e 10 39
e 10 40
e 10 41
e 10 44
e 10 45
e 10 47
e 10 49
e 10 50
e 10 54
e 10 56
e 10 58
e 10 59
e 10 61
e 10 64
e 10 66
e 10 67
e 10 68
e 10 69
e 10 72
e 10 74
e 10 77
e 10 78
e 10 79
e 10 81
e 10 83
e 10 85
e 10 87
e 10 90
e 10 92
e 10 94
e 10 95
e 10 96
e 10 98
e 11 13
e 11 14
e 11 16
e 11 18
e 11 21
e 11 23
e 11 24
e 11 25
e 11 28
e 11 30
e 11 32
e 11 34
e 11 35
e 11 39
e 11 40
e 11 43
e 11 44
e 11 45
e 11 50
e 11 53
e 11 54
e 11 61
e 11 62
e 11 63
e 11 64
e 11 66
e 11 68
e 11 71
e 11 72
e 11 73
e 11 75
e 11 76
e 11 77
e 11 78
e 11 80
e 11 81
e 11 82
e 11 83
e 11 84
e 11 88
e 11 91
e 11 97
e 11 99
e 11 100
e 12 13
e 12 14
e 12 19
e 12 22
e 12 23
e 12 26
e 12 27
e 12 29
e 12 37
e 12 38
e 12 40
e 12 41
e 12 46
e 12 47
e 12 49
e 12 50
e 12 52
e 12 53
e 12 55
e 12 56
e 12 61
e 12 64
e 12 65
e 12 69
e 12 70
e 12 73
e 12 74
e 12 75
e 12 78
e 12 80
e 12 82
e 12 83
e 12 84
e 12 88
e 12 92
e 12 94
e 12 96
e 12 97
e 13 14
e 13 15
e 13 17
e 13 18
e 13 19
e 13 20
e 13 21
e 13 22
e 13 24
e 13 28
e 13 30
e 13 33
e 13 34
e 13 36
e 13 37
e 13 40
e 13 41
e 13 42
e 13 49
e 13 50
e 13 52
e 13 54
e 13 55
e 13 59
e 13 60
e 13 63
e 13 64
e 13 65
e 13 68
e 13 71
e 13 74
e 13 75
e 13 80
e 13 82
e 13 84
e 13 86
e 13 88
e 13 91
e 13 93
e 13 94
e 13 96
e 13 97
e 13 98
e 13 99
e 14 15
e 14 16
e 14 18
e 14 19
e 14 21
e 14 22
e 14 23
e 14 25
e 14 26
e 14 29
e 14 30
e 14 34
e 14 36
e 14 39
e 14 41
e 14 42
e 14 53
e 14 55
e 14 56
e 14 62
e 14 63
e 14 64
e 14 65
e 14 66
e 14 69
e 14 73
e 14 74
e 14 75
e 14 76
e 14 78
e 14 80
e 14 81
e 14 84
e 14 85
e 14 86
e 14 87
e 14 88
e 14 89
e 14 90
e 14 94
e 14 95
e 14 97
e 14 98
e 14 100
e 15 20
e 15 22
e 15 24
e 15 25
e 15 28
e 15 30
e 15 33
e 15 34
e 15 37
e 15 45
e 15 47
e 15 48
e 15 52
e 15 56
e 15 57
e 15 59
e 15 61
e 15 70
e 15 71
e 15 72
e 15 73
e 15 75
e 15 78
e 15 79
e 15 83
e 15 88
e 15 89
e 15 90
e 15 92
e 15 94
e 15 97
e 15 98
e 15 99
e 16 20
e 16 21
e 16 23
e 16 24
e 16 27
e 16 28
e 16 29
e 16 30
e 16 33
e 16 36
e 16 37
e 16 39
e 16 43
e 16 44
e 16 47
e 16 48
e 16 50
e 16 51
e 16 53
e 16 55
e 16 56
e 16 59
e 16 62
e 16 69
e 16 73
e 16 74
e 16 75
e 16 79
e 16 82
e 16 86
e 16 88
e 16 90
e 16 91
e 16 93
e 16 96
e 16 98
e 17 18
e 17 20
e 17 21
e 17 22
e 17 25
e 17 26
e 17 28
e 17 31
e 17 32
e 17 33
e 17 36
e 17 38
e 17 39
e 17 40
e 17 41
e 17 47
e 17 49
e 17 51
e 17 52
e 17 54
e 17 56
e 17 58
e 17 60
e 17 61
e 17 63
e 17 65
e 17 68
e 17 69
e 17 70
e 17 71
e 17 78
e 17 79
e 17 80
e 17 82
e 17 83
e 17 85
e 17 89
e 17 90
e 17 91
e 17 92
e 17 96
e 17 98
e 18 20
e 18 21
e 18 23
e 18 24
e 18 26
e 18 27
e 18 29
e 18 34
e 18 35
e 18 38
e 18 39
e 18 40
e 18 42
e 18 44
e 18 46
e 18 47
e 18 48
e 18 49
e 18 50
e 18 51
e 18 53
e 18 55
e 18 57
e 18 58
e 18 61
e 18 64
e 18 65
e 18 67
e 18 68
e 18 69
e 18 72
e 18 77
e 18 78
e 18 81
e 18 83
e 18 84
e 18 85
e 18 87
e 18 90
e 18 96
e 18 98
e 19 21
e 19 31
e 19 35
e 19 36
e 19 38
e 19 39
e 19 40
e 19 41
e 19 52
e 19 53
e 19 54
e 19 55
e 19 57
e 19 58
e 19 60
e 19 62
e 19 63
e 19 64
e 19 65
e 19 69
e 19 70
e 19 74
e 19 77
e 19 86
e 19 90
e 19 91
e 19 92
e 19 97
e 19 98
e 19 99
e 20 24
e 20 26
e 20 27
e 20 32
e 20 33
e 20 34
e 20 35
e 20 37
e 20 39
e 20 40
e 20 42
e 20 44
e 20 47
e 20 49
e 20 51
e 20 52
e 20 54
e 20 55
e 20 58
e 20 59
e 20 60
e 20 61
e 20 62
e 20 64
e 20 65
e 20 67
e 20 68
e 20 69
e 20 70
e 20 74
e 20 75
e 20 79
e 20 82
e 20 84
e 20 86
e 20 88
e 20 91
e 20 95
e 20 97
e 20 98
e 20 99
e 20 100
e 21 24
e 21 27
e 21 28
e 21 29
e 21 30
e 21 31
e 21 33
e 21 35
e 21 36
e 21 37
e 21 39
e 21 41
e 21 42
e 21 44
e 21 45
e 21 46
e 21 49
e 21 50
e 21 52
e 21 56
e 21 59
e 21 60
e 21 62
e 21 63
e 21 64
e 21 65
e 21 66
e 21 69
e 21 71
e 21 73
e 21 74
e 21 75
e 21 76
e 21 79
e 21 80
e 21 81
e 21 83
e 21 84
e 21 85
e 21 86
e 21 88
e 21 91
e 21 92
e 21 93
e 21 94
e 21 95
e 21 96
e 21 97
e 21 100
e 22 23
e 22 27
e 22 31
e 22 35
e 22 37
e 22 38
e 22 39
e 22 41
e 22 42
e 22 44
e 22 51
e 22 52
e 22 53
e 22 54
e 22 55
e 22 58
e 22 59
e 22 60
e 22 63
e 22 64
e 22 68
e 22 70
e 22 72
e 22 73
e 22 75
e 22 79
e 22 83
e 22 85
e 22 86
e 22 88
e 22 91
e 22 92
e 22 93
e 22 98
e 23 24
e 23 26
e 23 27
e 23 30
e 23 34
e 23 49
e 23 50
e 23 51
e 23 52
e 23 54
e 23 55
e 23 56
e 23 59
e 23 60
e 23 61
e 23 63
e 23 64
e 23 65
e 23 69
e 23 73
e 23 75
e 23 79
e 23 86
e 23 87
e 23 88
e 23 89
e 23 90
e 23 93
e 23 94
e 23 96
e 23 99
e 23 100
e 24 28
e 24 29
e 24 32
e 24 33
e 24 34
e 24 36
e 24 38
e 24 39
e 24 40
e 24 41
e 24 43
e 24 44
e 24 47
e 24 48
e 24 50
e 24 53
e 24 56
e 24 57
e 24 61
e 24 64
e 24 65
e 24 66
e 24 67
e 24 70
e 24 71
e 24 72
e 24 73
e 24 76
e 24 77
e 24 78
e 24 80
e 24 81
e 24 82
e 24 83
e 24 84
e 24 86
e 24 87
e 24 88
e 24 90
e 24 92
e 24 97
e 24 100
e 25 26
e 25 27
e 25 28
e 25 30
e 25 32
e 25 34
e 25 35
e 25 36
e 25 38
e 25 39
e 25 41
e 25 42
e 25 45
e 25 49
e 25 50
e 25 53
e 25 54
e 25 56
e 25 62
e 25 63
e 25 67
e 25 69
e 25 73
e 25 74
e 25 79
e 25 80
e 25 82
e 25 84
e 25 85
e 25 87
e 25 88
e 25 91
e 25 93
e 25 94
e 25 96
e 25 97
e 25 100
e 26 27
e 26 28
e 26 29
e 26 32
e 26 37
e 26 38
e 26 39
e 26 40
e 26 46
e 26 47
e 26 50
e 26 56
e 26 60
e 26 62
e 26 63
e 26 64
e 26 65
e 26 67
e 26 68
e 26 70
e 26 76
e 26 77
e 26 79
e 26 80
e 26 81
e 26 83
e 26 85
e 26 86
e 26 87
e 26 88
e 26 89
e 26 90
e 26 91
e 26 92
e 26 94
e 26 95
e 26 96
e 26 98
e 27 32
e 27 33
e 27 35
e 27 37
e 27 38
e 27 39
e 27 42
e 27 43
e 27 45
e 27 46
e 27 48
e 27 52
e 27 55
e 27 56
e 27 57
e 27 58
e 27 59
e 27 60
e 27 62
e 27 63
e 27 64
e 27 68
e 27 69
e 27 70
e 27 71
e 27 72
e 27 76
e 27 77
e 27 78
e 27 81
e 27 82
e 27 86
e 27 87
e 27 88
e 27 89
e 27 92
e 27 93
e 27 99
e 27 100
e 28 29
e 28 32
e 28 36
e 28 37
e 28 38
e 28 39
e 28 40
e 28 43
e 28 45
e 28 46
e 28 49
e 28 50
e 28 52
e 28 53
e 28 55
e 28 58
e 28 59
e 28 63
e 28 64
e 28 65
e 28 66
e 28 69
e 28 71
e 28 73
e 28 74
e 28 76
e 28 77
e 28 80
e 28 84
e 28 85
e 28 86
e 28 87
e 28 88
e 28 89
e 28 90
e 28 93
e 28 94
e 28 96
e 28 99
e 29 32
e 29 33
e 29 34
e 29 35
e 29 37
e 29 40
e 29 41
e 29 43
e 29 45
e 29 46
e 29 48
e 29 49
e 29 51
e 29 55
e 29 56
e 29 59
e 29 60
e 29 63
e 29 64
e 29 69
e 29 70
e 29 72
e 29 78
e 29 80
e 29 81
e 29 85
e 29 86
e 29 87
e 29 88
e 29 90
e 29 91
e 29 93
e 29 96
e 29 97
e 29 100
e 30 32
e 30 33
e 30 38
e 30 39
e 30 42
e 30 43
e 30 45
e 30 47
e 30 49
e 30 50
e 30 53
e 30 54
e 30 57
e 30 58
e 30 60
e 30 61
e 30 62
e 30 65
e 30 69
e 30 71
e 30 73
e 30 75
e 30 76
e 30 77
e 30 78
e 30 80
e 30 81
e 30 83
e 30 84
e 30 85
e 30 86
e 30 87
e 30 88
e 30 89
e 30 95
e 30 96
e 30 99
e 30 100
e 31 32
e 31 33
e 31 34
e 31 35
e 31 36
e 31 40
e 31 43
e 31 45
e 31 46
e 31 47
e 31 49
e 31 50
e 31 56
e 31 60
e 31 63
e 31 67
e 31 69
e 31 71
e 31 72
e 31 76
e 31 79
e 31 80
e 31 82
e 31 85
e 31 87
e 31 88
e 31 89
e 31 90
e 31 94
e 31 95
e 31 97
e 31 100
e 32 33
e 32 34
e 32 36
e 32 37
e 32 39
e 32 44
e 32 47
e 32 50
e 32 54
e 32 58
e 32 59
e 32 60
e 32 62
e 32 64
e 32 65
e 32 68
e 32 69
e 32 70
e 32 73
e 32 75
e 32 77
e 32 79
e 32 80
e 32 81
e 32 84
e 32 85
e 32 86
e 32 87
e 32 89
e 32 92
e 32 95
e 32 98
e 33 35
e 33 36
e 33 38
e 33 39
e 33 40
e 33 44
e 33 46
e 33 47
e 33 48
e 33 50
e 33 55
e 33 58
e 33 59
e 33 68
e 33 69
e 33 71
e 33 72
e 33 73
e 33 76
e 33 77
e 33 78
e 33 79
e 33 81
e 33 88
e 33 89
e 33 92
e 33 96
e 33 98
e 33 99
e 34 37
e 34 38
e 34 39
e 34 42
e 34 46
e 34 49
e 34 50
e 34 51
e 34 52
e 34 53
e 34 55
e 34 56
e 34 57
e 34 58
e 34 59
e 34 62
e 34 64
e 34 65
e 34 66
e 34 69
e 34 71
e 34 73
e 34 74
e 34 76
e 34 77
e 34 79
e 34 81
e 34 83
e 34 90
e 34 91
e 34 99
e 34 100
e 35 39
e 35 40
e 35 41
e 35 42
e 35 43
e 35 45
e 35 46
e 35 50
e 35 51
e 35 52
e 35 60
e 35 61
e 35 68
e 35 69
e 35 75
e 35 79
e 35 80
e 35 84
e 35 88
e 35 89
e 35 90
e 35 91
e 35 94
e 35 95
e 35 96
e 35 97
e 35 98
e 35 99
e 36 37
e 36 38
e 36 39
e 36 40
e 36 43
e 36 44
e 36 47
e 36 48
e 36 50
e 36 51
e 36 53
e 36 54
e 36 55
e 36 57
e 36 59
e 36 60
e 36 63
e 36 65
e 36 66
e 36 67
e 36 70
e 36 72
e 36 73
e 36 75
e 36 76
e 36 85
e 36 86
e 36 87
e 36 88
e 36 90
e 36 92
e 36 95
e 36 99
e 36 100
e 37 38
e 37 40
e 37 41
e 37 42
e 37 43
e 37 47
e 37 49
e 37 51
e 37 54
e 37 55
e 37 58
e 37 59
e 37 71
e 37 74
e 37 75
e 37 78
e 37 79
e 37 81
e 37 83
e 37 84
e 37 85
e 37 87
e 37 88
e 37 89
e 37 90
e 37 92
e 37 93
e 37 99
e 37 100
e 38 40
e 38 42
e 38 43
e 38 45
e 38 48
e 38 49
e 38 50
e 38 51
e 38 52
e 38 59
e 38 60
e 38 61
e 38 65
e 38 68
e 38 69
e 38 72
e 38 73
e 38 74
e 38 75
e 38 77
e 38 79
e 38 80
e 38 82
e 38 83
e 38 84
e 38 85
e 38 89
e 38 91
e 38 92
e 38 93
e 38 94
e 38 95
e 38 97
e 38 99
e 38 100
e 39 40
e 39 42
e 39 43
e 39 46
e 39 48
e 39 49
e 39 52
e 39 53
e 39 54
e 39 55
e 39 61
e 39 65
e 39 66
e 39 67
e 39 71
e 39 72
e 39 73
e 39 74
e 39 76
e 39 77
e 39 80
e 39 81
e 39 82
e 39 85
e 39 87
e 39 88
e 39 89
e 39 91
e 39 92
e 39 93
e 39 94
e 39 97
e 40 44
e 40 45
e 40 46
e 40 47
e 40 48
e 40 49
e 40 50
e 40 51
e 40 53
e 40 54
e 40 57
e 40 58
e 40 62
e 40 63
e 40 67
e 40 70
e 40 71
e 40 73
e 40 75
e 40 77
e 40 81
e 40 82
e 40 83
e 40 84
e 40 85
e 40 88
e 40 92
e 40 95
e 40 97
e 40 98
e 41 42
e 41 45
e 41 48
e 41 49
e 41 50
e 41 53
e 41 57
e 41 61
e 41 62
e 41 64
e 41 69
e 41 71
e 41 75
e 41 80
e 41 81
e 41 82
e 41 84
e 41 86
e 41 89
e 41 90
e 41 93
e 41 94
e 41 99
e 42 43
e 42 45
e 42 48
e 42 50
e 42 51
e 42 52
e 42 53
e 42 57
e 42 67
e 42 68
e 42 69
e 42 72
e 42 73
e 42 74
e 42 75
e 42 76
e 42 77
e 42 79
e 42 80
e 42 81
e 42 85
e 42 86
e 42 88
e 42 90
e 42 93
e 42 96
e 42 97
e 42 99
e 43 44
e 43 45
e 43 46
e 43 47
e 43 49
e 43 50
e 43 51
e 43 52
e 43 55
e 43 59
e 43 61
e 43 62
e 43 65
e 43 67
e 43 69
e 43 71
e 43 75
e 43 76
e 43 78
e 43 81
e 43 83
e 43 85
e 43 86
e 43 89
e 43 94
e 43 95
e 43 96
e 44 47
e 44 49
e 44 50
e 44 52
e 44 54
e 44 58
e 44 59
e 44 61
e 44 63
e 44 64
e 44 66
e 44 68
e 44 73
e 44 74
e 44 77
e 44 79
e 44 81
e 44 83
e 44 84
e 44 95
e 44 98
e 44 100
e 45 46
e 45 48
e 45 49
e 45 55
e 45 56
e 45 57
e 45 59
e 45 60
e 45 62
e 45 64
e 45 65
e 45 67
e 45 68
e 45 69
e 45 70
e 45 75
e 45 76
e 45 77
e 45 79
e 45 83
e 45 86
e 45 87
e 45 88
e 45 89
e 45 90
e 45 91
e 45 92
e 45 93
e 45 97
e 45 100
e 46 49
e 46 50
e 46 51
e 46 52
e 46 53
e 46 55
e 46 56
e 46 57
e 46 58
e 46 59
e 46 61
e 46 63
e 46 65
e 46 67
e 46 68
e 46 69
e 46 71
e 46 74
e 46 77
e 46 78
e 46 83
e 46 84
e 46 85
e 46 86
e 46 87
e 46 88
e 46 90
e 46 91
e 46 94
e 46 99
e 46 100
e 47 51
e 47 52
e 47 55
e 47 56
e 47 57
e 47 58
e 47 59
e 47 60
e 47 61
e 47 65
e 47 66
e 47 67
e 47 69
e 47 70
e 47 73
e 47 75
e 47 78
e 47 81
e 47 83
e 47 85
e 47 88
e 47 90
e 47 91
e 47 92
e 47 93
e 47 94
e 47 96
e 47 100
e 48 49
e 48 50
e 48 54
e 48 56
e 48 59
e 48 61
e 48 62
e 48 65
e 48 66
e 48 69
e 48 70
e 48 71
e 48 74
e 48 75
e 48 76
e 48 78
e 48 80
e 48 81
e 48 83
e 48 84
e 48 85
e 48 86
e 48 87
e 48 88
e 48 89
e 48 90
e 48 92
e 48 94
e 48 95
e 48 96
e 48 97
e 49 51
e 49 53
e 49 54
e 49 55
e 49 58
e 49 59
e 49 60
e 49 61
e 49 62
e 49 63
e 49 64
e 49 68
e 49 70
e 49 73
e 49 74
e 49 75
e 49 77
e 49 78
e 49 79
e 49 83
e 49 85
e 49 87
e 49 89
e 49 90
e 49 91
e 49 92
e 49 93
e 49 94
e 49 96
e 49 97
e 49 98
e 50 51
e 50 52
e 50 54
e 50 56
e 50 58
e 50 59
e 50 60
e 50 61
e 50 63
e 50 64
e 50 66
e 50 67
e 50 68
e 50 69
e 50 70
e 50 72
e 50 73
e 50 76
e 50 78
e 50 81
e 50 83
e 50 87
e 50 90
e 50 92
e 50 94
e 50 96
e 50 99
e 51 53
e 51 56
e 51 57
e 51 58
e 51 62
e 51 63
e 51 65
e 51 67
e 51 71
e 51 73
e 51 74
e 51 75
e 51 77
e 51 78
e 51 79
e 51 81
e 51 82
e 51 83
e 51 84
e 51 87
e 51 93
e 51 98
e 51 100
e 52 53
e 52 56
e 52 57
e 52 58
e 52 60
e 52 61
e 52 62
e 52 66
e 52 68
e 52 70
e 52 71
e 52 72
e 52 73
e 52 74
e 52 75
e 52 76
e 52 77
e 52 79
e 52 80
e 52 83
e 52 84
e 52 86
e 52 87
e 52 88
e 52 90
e 52 91
e 52 92
e 52 94
e 52 95
e 52 96
e 52 97
e 52 99
e 53 56
e 53 57
e 53 58
e 53 61
e 53 63
e 53 66
e 53 67
e 53 68
e 53 71
e 53 72
e 53 73
e 53 76
e 53 78
e 53 79
e 53 80
e 53 84
e 53 88
e 53 90
e 53 91
e 53 92
e 53 96
e 53 99
e 54 56
e 54 58
e 54 60
e 54 61
e 54 66
e 54 68
e 54 74
e 54 79
e 54 80
e 54 84
e 54 90
e 54 93
e 54 94
e 54 95
e 54 99
e 54 100
e 55 56
e 55 60
e 55 63
e 55 67
e 55 69
e 55 72
e 55 77
e 55 78
e 55 80
e 55 82
e 55 83
e 55 84
e 55 85
e 55 87
e 55 90
e 55 91
e 55 92
e 55 94
e 55 97
e 55 98
e 55 99
e 56 58
e 56 59
e 56 62
e 56 64
e 56 65
e 56 66
e 56 68
e 56 69
e 56 70
e 56 71
e 56 73
e 56 74
e 56 75
e 56 77
e 56 82
e 56 84
e 56 86
e 56 93
e 56 94
e 56 95
e 56 96
e 56 97
e 57 59
e 57 61
e 57 63
e 57 65
e 57 66
e 57 68
e 57 70
e 57 74
e 57 76
e 57 78
e 57 81
e 57 83
e 57 84
e 57 86
e 57 91
e 57 93
e 57 95
e 57 96
e 57 97
e 57 98
e 57 99
e 57 100
e 58 61
e 58 63
e 58 65
e 58 68
e 58 69
e 58 71
e 58 75
e 58 77
e 58 79
e 58 80
e 58 83
e 58 84
e 58 87
e 58 88
e 58 89
e 58 91
e 58 93
e 58 94
e 58 95
e 58 96
e 58 97
e 58 98
e 58 100
e 59 67
e 59 68
e 59 69
e 59 71
e 59 74
e 59 79
e 59 81
e 59 84
e 59 85
e 59 86
e 59 87
e 59 88
e 59 90
e 59 92
e 59 94
e 59 96
e 59 100
e 60 66
e 60 67
e 60 74
e 60 75
e 60 76
e 60 79
e 60 81
e 60 82
e 60 83
e 60 84
e 60 85
e 60 87
e 60 88
e 60 89
e 60 92
e 60 97
e 60 99
e 60 100
e 61 63
e 61 67
e 61 68
e 61 71
e 61 76
e 61 78
e 61 82
e 61 84
e 61 85
e 61 86
e 61 87
e 61 88
e 61 90
e 61 91
e 61 92
e 61 93
e 61 94
e 61 95
e 61 97
e 61 98
e 61 99
e 62 63
e 62 65
e 62 66
e 62 68
e 62 72
e 62 77
e 62 82
e 62 83
e 62 86
e 62 88
e 62 93
e 62 94
e 62 97
e 62 98
e 62 99
e 62 100
e 63 64
e 63 66
e 63 67
e 63 69
e 63 72
e 63 77
e 63 78
e 63 79
e 63 80
e 63 81
e 63 82
e 63 84
e 63 87
e 63 89
e 63 92
e 63 94
e 63 95
e 63 96
e 63 97
e 63 100
e 64 65
e 64 67
e 64 69
e 64 71
e 64 73
e 64 74
e 64 76
e 64 85
e 64 88
e 64 89
e 64 91
e 64 93
e 64 96
e 64 100
e 65 66
e 65 69
e 65 70
e 65 73
e 65 74
e 65 77
e 65 80
e 65 82
e 65 83
e 65 84
e 65 87
e 65 89
e 65 90
e 65 91
e 65 92
e 65 93
e 65 94
e 65 95
e 65 97
e 65 100
e 66 73
e 66 75
e 66 76
e 66 79
e 66 80
e 66 81
e 66 83
e 66 84
e 66 89
e 66 90
e 66 91
e 66 93
e 66 94
e 66 96
e 66 99
e 66 100
e 67 69
e 67 75
e 67 78
e 67 79
e 67 80
e 67 81
e 67 82
e 67 84
e 67 86
e 67 87
e 67 90
e 67 91
e 67 92
e 67 95
e 67 98
e 68 69
e 68 70
e 68 72
e 68 74
e 68 75
e 68 76
e 68 77
e 68 79
e 68 81
e 68 82
e 68 84
e 68 85
e 68 86
e 68 87
e 68 88
e 68 90
e 68 93
e 68 97
e 68 98
e 68 99
e 69 73
e 69 74
e 69 75
e 69 76
e 69 78
e 69 80
e 69 83
e 69 84
e 69 89
e 69 91
e 69 92
e 69 93
e 69 96
e 69 98
e 69 100
e 70 72
e 70 73
e 70 75
e 70 76
e 70 78
e 70 79
e 70 80
e 70 81
e 70 83
e 70 84
e 70 85
e 70 86
e 70 88
e 70 90
e 70 91
e 70 92
e 70 95
e 70 96
e 70 98
e 70 99
e 71 72
e 71 76
e 71 77
e 71 80
e 71 81
e 71 84
e 71 87
e 71 89
e 71 90
e 71 92
e 71 93
e 71 94
e 71 98
e 71 99
e 71 100
e 72 74
e 72 75
e 72 79
e 72 80
e 72 82
e 72 83
e 72 85
e 72 86
e 72 87
e 72 89
e 72 90
e 72 91
e 72 92
e 72 93
e 72 94
e 72 97
e 72 100
e 73 74
e 73 82
e 73 85
e 73 86
e 73 89
e 73 90
e 73 94
e 73 98
e 73 99
e 74 75
e 74 76
e 74 81
e 74 82
e 74 83
e 74 84
e 74 85
e 74 87
e 74 91
e 74 92
e 74 93
e 74 94
e 74 95
e 74 97
e 75 79
e 75 81
e 75 82
e 75 83
e 75 85
e 75 88
e 75 93
e 75 94
e 75 95
e 75 97
e 76 77
e 76 78
e 76 82
e 76 85
e 76 86
e 76 89
e 76 90
e 76 93
e 76 95
e 76 96
e 76 97
e 77 79
e 77 80
e 77 82
e 77 83
e 77 84
e 77 85
e 77 86
e 77 92
e 77 95
e 77 97
e 77 98
e 77 99
e 77 100
e 78 80
e 78 81
e 78 85
e 78 91
e 78 92
e 78 93
e 78 94
e 78 95
e 78 99
e 79 81
e 79 83
e 79 84
e 79 85
e 79 87
e 79 89
e 79 94
e 79 96
e 79 97
e 79 99
e 80 81
e 80 84
e 80 85
e 80 87
e 80 89
e 80 90
e 80 91
e 80 92
e 80 93
e 80 95
e 80 100
e 81 86
e 81 87
e 81 88
e 81 90
e 81 91
e 81 94
e 81 97
e 81 99
e 82 83
e 82 84
e 82 87
e 82 88
e 82 90
e 82 93
e 82 94
e 82 98
e 82 99
e 83 84
e 83 85
e 83 89
e 83 91
e 83 92
e 83 93
e 83 94
e 83 95
e 83 96
e 83 98
e 83 100
e 84 86
e 84 87
e 84 91
e 84 92
e 84 95
e 84 96
e 84 97
e 84 100
e 85 86
e 85 87
e 85 90
e 85 91
e 85 92
e 85 93
e 85 94
e 85 96
e 85 97
e 85 98
e 85 100
e 86 87
e 86 88
e 86 89
e 86 90
e 86 91
e 86 93
e 86 94
e 86 97
e 86 98
e 86 99
e 86 100
e 87 89
e 87 90
e 87 91
e 87 93
e 87 96
e 87 97
e 87 99
e 87 100
e 88 89
e 88 91
e 88 92
e 88 93
e 88 96
e 88 98
e 89 92
e 89 93
e 89 94
e 89 97
e 89 98
e 90 91
e 90 92
e 90 93
e 90 96
e 91 94
e 91 96
e 91 100
e 92 94
e 92 95
e 92 98
e 92 99
e 92 100
e 93 95
e 93 96
e 93 97
e 93 99
e 93 100
e 94 95
e 94 96
e 94 98
e 95 96
e 95 97
e 95 98
e 95 99
e 95 100
e 96 97
e 96 98
e 96 100
e 97 99
e 98 100
